! Forca concentrada #1 - caso base
! Gerado por casos_2d.py: A = (0, 10), B = (30, 10), trechos (L, q) = [(35, 10)], forcas (fracao do arco, P) = [(0.5, 150)]
! Resultado final gravado em caso.txt (nos e forca axial dos elementos)
/CLEAR,NOSTART
/FILNAME,cabo2d,1
/TITLE,Cabo 2D - casos_2d.py
/PREP7
ET,1,BEAM188
MP,EX,1,2.0E11
MP,PRXY,1,0.3
rsec=0.01
fI=0.01
Asec=3.14159265359*rsec**2
Isec=fI*3.14159265359*rsec**4/4
SECTYPE,1,BEAM,ASEC
SECDATA,Asec,Isec,0,Isec,0,2*Isec
SECTYPE,2,BEAM,ASEC
SECDATA,Asec,Isec,0,Isec,0,2*Isec
N,1,0.0000000000,10.0000000000,0
N,2,0.3004307800,9.6819654586,0
N,3,0.6041098419,9.3670312719,0
N,4,0.9111107383,9.0553345488,0
N,5,1.2215080443,8.7470201257,0
N,6,1.5353772069,8.4422410526,0
N,7,1.8527943109,8.1411590554,0
N,8,2.1738358459,7.8439450581,0
N,9,2.4985783740,7.5507796689,0
N,10,2.8270981810,7.2618537183,0
N,11,3.1594708538,6.9773687919,0
N,12,3.4957707774,6.6975377527,0
N,13,3.8360705606,6.4225852636,0
N,14,4.1804403723,6.1527482895,0
N,15,4.5289472106,5.8882766099,0
N,16,4.8816539698,5.6294331589,0
N,17,5.2386185240,5.3764944723,0
N,18,5.5998925970,5.1297509322,0
N,19,5.9655205314,4.8895069367,0
N,20,6.3355379482,4.6560809683,0
N,21,6.7099701850,4.4298053564,0
N,22,7.0888307277,4.2110260244,0
N,23,7.4721194392,4.0001018723,0
N,24,7.8598206530,3.7974038100,0
N,25,8.2519012852,3.6033136517,0
N,26,8.6483087668,3.4182223957,0
N,27,9.0489690572,3.2425282625,0
N,28,9.4537846642,3.0766342104,0
N,29,9.8626327634,2.9209449449,0
N,30,10.2753635476,2.7758635455,0
N,31,10.6917987822,2.6417874269,0
N,32,11.1117308164,2.5191040816,0
N,33,11.5349219918,2.4081862314,0
N,34,11.9611046661,2.3093868388,0
N,35,12.3899818442,2.2230338011,0
N,36,12.8212285561,2.1494247569,0
N,37,13.2544939492,2.0888218487,0
N,38,13.6894041778,2.0414470689,0
N,39,14.1255659738,2.0074779023,0
N,40,14.5625708811,1.9870438616,0
N,41,15.0000000000,1.9802236740,0
N,42,15.4374291189,1.9870438616,0
N,43,15.8744340262,2.0074779023,0
N,44,16.3105958222,2.0414470689,0
N,45,16.7455060508,2.0888218487,0
N,46,17.1787714439,2.1494247569,0
N,47,17.6100181558,2.2230338011,0
N,48,18.0388953339,2.3093868388,0
N,49,18.4650780082,2.4081862314,0
N,50,18.8882691836,2.5191040816,0
N,51,19.3082012178,2.6417874269,0
N,52,19.7246364524,2.7758635455,0
N,53,20.1373672366,2.9209449449,0
N,54,20.5462153358,3.0766342104,0
N,55,20.9510309428,3.2425282625,0
N,56,21.3516912332,3.4182223957,0
N,57,21.7480987148,3.6033136517,0
N,58,22.1401793470,3.7974038100,0
N,59,22.5278805608,4.0001018723,0
N,60,22.9111692723,4.2110260244,0
N,61,23.2900298150,4.4298053564,0
N,62,23.6644620518,4.6560809683,0
N,63,24.0344794686,4.8895069367,0
N,64,24.4001074030,5.1297509322,0
N,65,24.7613814760,5.3764944723,0
N,66,25.1183460302,5.6294331589,0
N,67,25.4710527894,5.8882766099,0
N,68,25.8195596277,6.1527482895,0
N,69,26.1639294394,6.4225852636,0
N,70,26.5042292226,6.6975377527,0
N,71,26.8405291462,6.9773687919,0
N,72,27.1729018190,7.2618537183,0
N,73,27.5014216260,7.5507796689,0
N,74,27.8261641541,7.8439450581,0
N,75,28.1472056891,8.1411590554,0
N,76,28.4646227931,8.4422410526,0
N,77,28.7784919557,8.7470201257,0
N,78,29.0888892617,9.0553345488,0
N,79,29.3958901581,9.3670312719,0
N,80,29.6995692200,9.6819654586,0
N,81,30.0000000000,10.0000000000,0
TYPE,1
MAT,1
SECNUM,1
E,1,2
E,2,3
E,3,4
E,4,5
E,5,6
E,6,7
E,7,8
E,8,9
E,9,10
E,10,11
E,11,12
E,12,13
E,13,14
E,14,15
E,15,16
E,16,17
E,17,18
E,18,19
E,19,20
E,20,21
E,21,22
E,22,23
E,23,24
E,24,25
E,25,26
E,26,27
E,27,28
E,28,29
E,29,30
E,30,31
E,31,32
E,32,33
E,33,34
E,34,35
E,35,36
E,36,37
E,37,38
E,38,39
E,39,40
E,40,41
SECNUM,2
E,41,42
E,42,43
E,43,44
E,44,45
E,45,46
E,46,47
E,47,48
E,48,49
E,49,50
E,50,51
E,51,52
E,52,53
E,53,54
E,54,55
E,55,56
E,56,57
E,57,58
E,58,59
E,59,60
E,60,61
E,61,62
E,62,63
E,63,64
E,64,65
E,65,66
E,66,67
E,67,68
E,68,69
E,69,70
E,70,71
E,71,72
E,72,73
E,73,74
E,74,75
E,75,76
E,76,77
E,77,78
E,78,79
E,79,80
E,80,81
NSEL,ALL
D,ALL,UZ,0
D,ALL,ROTX,0
D,ALL,ROTY,0
D,1,ALL,0
D,81,ALL,0
*DIM,qsec,ARRAY,2
qsec(1)=10
qsec(2)=10
FCUM,ADD
*GET,emx,ELEM,0,NUM,MAX
*DO,e,1,emx
  n1=NELEM(e,1)
  n2=NELEM(e,2)
  *GET,sc,ELEM,e,ATTR,SECN
  le=DISTND(n1,n2)
  F,n1,FY,-qsec(sc)*le/2
  F,n2,FY,-qsec(sc)*le/2
*ENDDO
FCUM,REPL
FINISH
/SOLU
ANTYPE,STATIC
NLGEOM,ON
AUTOTS,ON
NSUBST,200,20000,50
PIVCHECK,OFF
STABILIZE,REDUCE,ENERGY,1.0E-2
OUTRES,ALL,LAST
SOLVE
FCUM,ADD
F,41,FY,-150
FCUM,REPL
TIME,2
NSUBST,50,20000,20
LNSRCH,ON
STABILIZE,CONSTANT,ENERGY,1.0E-2
SOLVE
TIME,3
NSUBST,5,1000,2
STABILIZE,OFF
SOLVE
FINISH
/POST1
SET,LAST
ALLSEL,ALL
ETABLE,AXF,SMISC,1
*GET,nmx,NODE,0,NUM,MAX
*CFOPEN,caso,txt
*DO,i,1,nmx
  x0=NX(i)
  y0=NY(i)
  xf=x0+UX(i)
  yf=y0+UY(i)
  *VWRITE,i,x0,y0,xf,yf
('N',F8.0,4E20.10)
*ENDDO
*GET,emx,ELEM,0,NUM,MAX
*DO,k,1,emx
  *GET,sc,ELEM,k,ATTR,SECN
  *GET,ax,ELEM,k,ETAB,AXF
  n1=NELEM(k,1)
  n2=NELEM(k,2)
  *VWRITE,k,sc,n1,n2,ax
('E',4F8.0,E20.10)
*ENDDO
*CFCLOS
FINISH
