! Forca concentrada #4 - mu = 10
! Gerado por casos_2d.py: A = (0, 10), B = (30, 20), trechos (L, q) = [(35, 10)], forcas (fracao do arco, P) = [(0.5, 3500)]
! Resultado final gravado em caso.txt (nos e forca axial dos elementos)
/CLEAR,NOSTART
/FILNAME,cabo2d,1
/TITLE,Cabo 2D - casos_2d.py
/PREP7
ET,1,BEAM188
MP,EX,1,2.0E11
MP,PRXY,1,0.3
rsec=0.01
fI=0.01
Asec=3.14159265359*rsec**2
Isec=fI*3.14159265359*rsec**4/4
SECTYPE,1,BEAM,ASEC
SECDATA,Asec,Isec,0,Isec,0,2*Isec
SECTYPE,2,BEAM,ASEC
SECDATA,Asec,Isec,0,Isec,0,2*Isec
N,1,0.0000000000,10.0000000000,0
N,2,0.3799171127,9.7830567918,0
N,3,0.7636263906,9.5728943344,0
N,4,1.1511152621,9.3697856718,0
N,5,1.5423601271,9.1740105901,0
N,6,1.9373253311,8.9858548719,0
N,7,2.3359620364,8.8056091729,0
N,8,2.7382071702,8.6335678255,0
N,9,3.1439823614,8.4700273196,0
N,10,3.5531930023,8.3152847003,0
N,11,3.9657273205,8.1696355194,0
N,12,4.3814556804,8.0333718061,0
N,13,4.8002300029,7.9067797044,0
N,14,5.2218833911,7.7901368904,0
N,15,5.6462300360,7.6837099409,0
N,16,6.0730653913,7.5877515570,0
N,17,6.5021666492,7.5024976681,0
N,18,6.9332935773,7.4281646568,0
N,19,7.3661896841,7.3649465736,0
N,20,7.8005837433,7.3130125501,0
N,21,8.2361916498,7.2725044134,0
N,22,8.6727185912,7.2435346762,0
N,23,9.1098614774,7.2261848117,0
N,24,9.5473115906,7.2205040185,0
N,25,9.9847573813,7.2265084982,0
N,26,10.4218873408,7.2441811135,0
N,27,10.8583928692,7.2734717834,0
N,28,11.2939710706,7.3142981529,0
N,29,11.7283273991,7.3665468580,0
N,30,12.1611780756,7.4300753071,0
N,31,12.5922522636,7.5047136133,0
N,32,13.0212938995,7.5902670953,0
N,33,13.4480632167,7.6865188018,0
N,34,13.8723379119,7.7932322648,0
N,35,14.2939139450,7.9101543935,0
N,36,14.7126060321,8.0370182564,0
N,37,15.1282478064,8.1735458891,0
N,38,15.5406916991,8.3194509726,0
N,39,15.9498085784,8.4744413473,0
N,40,16.3554871650,8.6382213750,0
N,41,16.7576333044,8.8104940242,0
N,42,17.1561690655,8.9909628354,0
N,43,17.5510317853,9.1793335571,0
N,44,17.9421730071,9.3753156501,0
N,45,18.3295574201,9.5786234951,0
N,46,18.7131617534,9.7889774640,0
N,47,19.0929737112,10.0061047374,0
N,48,19.4689909038,10.2297400029,0
N,49,19.8412198375,10.4596259584,0
N,50,20.2096749527,10.6955136772,0
N,51,20.5743776833,10.9371629025,0
N,52,20.9353556482,11.1843421226,0
N,53,21.2926418106,11.4368286985,0
N,54,21.6462737811,11.6944087915,0
N,55,21.9962931385,11.9568772926,0
N,56,22.3427448205,12.2240376837,0
N,57,22.6856765688,12.4957018615,0
N,58,23.0251384460,12.7716899041,0
N,59,23.3611823684,13.0518298589,0
N,60,23.6938617340,13.3359574515,0
N,61,24.0232310430,13.6239158435,0
N,62,24.3493456238,13.9155553081,0
N,63,24.6722612958,14.2107330140,0
N,64,24.9920341872,14.5093126719,0
N,65,25.3087204966,14.8111642807,0
N,66,25.6223763072,15.1161638488,0
N,67,25.9330574333,15.4241931135,0
N,68,26.2408192839,15.7351392724,0
N,69,26.5457167362,16.0488947334,0
N,70,26.8478040513,16.3653568485,0
N,71,27.1471347966,16.6844276669,0
N,72,27.4437617322,17.0060137442,0
N,73,27.7377368112,17.3300258660,0
N,74,28.0291110992,17.6563788663,0
N,75,28.3179347325,17.9849914292,0
N,76,28.6042569264,18.3157858619,0
N,77,28.8881259145,18.6486879468,0
N,78,29.1695889450,18.9836267550,0
N,79,29.4486922877,19.3205344674,0
N,80,29.7254812195,19.6593462251,0
N,81,30.0000000000,20.0000000000,0
TYPE,1
MAT,1
SECNUM,1
E,1,2
E,2,3
E,3,4
E,4,5
E,5,6
E,6,7
E,7,8
E,8,9
E,9,10
E,10,11
E,11,12
E,12,13
E,13,14
E,14,15
E,15,16
E,16,17
E,17,18
E,18,19
E,19,20
E,20,21
E,21,22
E,22,23
E,23,24
E,24,25
E,25,26
E,26,27
E,27,28
E,28,29
E,29,30
E,30,31
E,31,32
E,32,33
E,33,34
E,34,35
E,35,36
E,36,37
E,37,38
E,38,39
E,39,40
E,40,41
SECNUM,2
E,41,42
E,42,43
E,43,44
E,44,45
E,45,46
E,46,47
E,47,48
E,48,49
E,49,50
E,50,51
E,51,52
E,52,53
E,53,54
E,54,55
E,55,56
E,56,57
E,57,58
E,58,59
E,59,60
E,60,61
E,61,62
E,62,63
E,63,64
E,64,65
E,65,66
E,66,67
E,67,68
E,68,69
E,69,70
E,70,71
E,71,72
E,72,73
E,73,74
E,74,75
E,75,76
E,76,77
E,77,78
E,78,79
E,79,80
E,80,81
NSEL,ALL
D,ALL,UZ,0
D,ALL,ROTX,0
D,ALL,ROTY,0
D,1,ALL,0
D,81,ALL,0
*DIM,qsec,ARRAY,2
qsec(1)=10
qsec(2)=10
FCUM,ADD
*GET,emx,ELEM,0,NUM,MAX
*DO,e,1,emx
  n1=NELEM(e,1)
  n2=NELEM(e,2)
  *GET,sc,ELEM,e,ATTR,SECN
  le=DISTND(n1,n2)
  F,n1,FY,-qsec(sc)*le/2
  F,n2,FY,-qsec(sc)*le/2
*ENDDO
FCUM,REPL
FINISH
/SOLU
ANTYPE,STATIC
NLGEOM,ON
AUTOTS,ON
NSUBST,200,20000,50
PIVCHECK,OFF
STABILIZE,REDUCE,ENERGY,1.0E-2
OUTRES,ALL,LAST
SOLVE
FCUM,ADD
F,41,FY,-3500
FCUM,REPL
TIME,2
NSUBST,50,20000,20
LNSRCH,ON
STABILIZE,CONSTANT,ENERGY,1.0E-2
SOLVE
TIME,3
NSUBST,5,1000,2
STABILIZE,OFF
SOLVE
FINISH
/POST1
SET,LAST
ALLSEL,ALL
ETABLE,AXF,SMISC,1
*GET,nmx,NODE,0,NUM,MAX
*CFOPEN,caso,txt
*DO,i,1,nmx
  x0=NX(i)
  y0=NY(i)
  xf=x0+UX(i)
  yf=y0+UY(i)
  *VWRITE,i,x0,y0,xf,yf
('N',F8.0,4E20.10)
*ENDDO
*GET,emx,ELEM,0,NUM,MAX
*DO,k,1,emx
  *GET,sc,ELEM,k,ATTR,SECN
  *GET,ax,ELEM,k,ETAB,AXF
  n1=NELEM(k,1)
  n2=NELEM(k,2)
  *VWRITE,k,sc,n1,n2,ax
('E',4F8.0,E20.10)
*ENDDO
*CFCLOS
FINISH
