! Cabo hibrido #3 - diferenca no peso
! Gerado por casos_2d.py: A = (0, 10), B = (40, 20), trechos (L, q) = [(30, 100), (20, 10)], forcas (fracao do arco, P) = []
! Resultado final gravado em caso.txt (nos e forca axial dos elementos)
/CLEAR,NOSTART
/FILNAME,cabo2d,1
/TITLE,Cabo 2D - casos_2d.py
/PREP7
ET,1,BEAM188
MP,EX,1,2.0E11
MP,PRXY,1,0.3
rsec=0.01
fI=0.01
Asec=3.14159265359*rsec**2
Isec=fI*3.14159265359*rsec**4/4
SECTYPE,1,BEAM,ASEC
SECDATA,Asec,Isec,0,Isec,0,2*Isec
SECTYPE,2,BEAM,ASEC
SECDATA,Asec,Isec,0,Isec,0,2*Isec
N,1,0.0000000000,10.0000000000,0
N,2,0.5249665559,9.4643720790,0
N,3,1.0589532800,8.9377375281,0
N,4,1.6022707618,8.4207362444,0
N,5,2.1552327275,7.9140652268,0
N,6,2.7181530002,7.4184835091,0
N,7,3.2913418017,6.9348174744,0
N,8,3.8751007399,6.4639658896,0
N,9,4.4697167917,6.0069050355,0
N,10,5.0754547439,5.5646933030,0
N,11,5.6925479207,5.1384749080,0
N,12,6.3211871930,4.7294825035,0
N,13,6.9615079020,4.3390377741,0
N,14,7.6135748213,3.9685495085,0
N,15,8.2773651359,3.6195080831,0
N,16,8.9527498371,3.2934754851,0
N,17,9.6394741439,2.9920698514,0
N,18,10.3371379234,2.7169435585,0
N,19,11.0451775088,2.4697541240,0
N,20,11.7628508065,2.2521278918,0
N,21,12.4892277564,2.0656168326,0
N,22,13.2231884413,1.9116500678,0
N,23,13.9634308327,1.7914826022,0
N,24,14.7084895473,1.7061449034,0
N,25,15.4567658739,1.6563975439,0
N,26,16.2065679721,1.6426953795,0
N,27,16.9561586785,1.6651652233,0
N,28,17.7038071516,1.7235994939,0
N,29,18.4478399851,1.8174665228,0
N,30,19.1866874659,1.9459365777,0
N,31,19.9189215032,2.1079202580,0
N,32,20.6432829523,2.3021155986,0
N,33,21.3586976309,2.5270590313,0
N,34,22.0642815794,2.7811762456,0
N,35,22.7593370883,3.0628296478,0
N,36,23.4433417029,3.3703598597,0
N,37,24.1159322982,3.7021204246,0
N,38,24.7768863919,4.0565051258,0
N,39,25.4261025574,4.4319680627,0
N,40,26.0635808384,4.8270379973,0
N,41,26.6894046351,5.2403268840,0
N,42,27.1002176338,5.5253287130,0
N,43,27.5059744116,5.8174849645,0
N,44,27.9067414227,6.1164499819,0
N,45,28.3025922241,6.4218952799,0
N,46,28.6936060262,6.7335092582,0
N,47,29.0798665624,7.0509966003,0
N,48,29.4614610102,7.3740777265,0
N,49,29.8384791412,7.7024880845,0
N,50,30.2110124523,8.0359775763,0
N,51,30.5791535514,8.3743098001,0
N,52,30.9429955377,8.7172614083,0
N,53,31.3026315330,9.0646213991,0
N,54,31.6581542597,9.4161904570,0
N,55,32.0096556663,9.7717803287,0
N,56,32.3572266982,10.1312131365,0
N,57,32.7009570221,10.4943208160,0
N,58,33.0409348288,10.8609445450,0
N,59,33.3772466954,11.2309341804,0
N,60,33.7099774739,11.6041477324,0
N,61,34.0392101321,11.9804509323,0
N,62,34.3650258268,12.3597166455,0
N,63,34.6875037206,12.7418245558,0
N,64,35.0067210026,13.1266607103,0
N,65,35.3227528978,13.5141171149,0
N,66,35.6356726397,13.9040913945,0
N,67,35.9455514653,14.2964864643,0
N,68,36.2524586775,14.6912101768,0
N,69,36.5564616307,15.0881750549,0
N,70,36.8576257778,15.4872980011,0
N,71,37.1560147056,15.8885000365,0
N,72,37.4516901390,16.2917060825,0
N,73,37.7447120541,16.6968446800,0
N,74,38.0351386649,17.1038478189,0
N,75,38.3230264746,17.5126507334,0
N,76,38.6084303382,17.9231917038,0
N,77,38.8914034831,18.3354119001,0
N,78,39.1719976074,18.7492551839,0
N,79,39.4502628351,19.1646680171,0
N,80,39.7262478794,19.5815992408,0
N,81,40.0000000000,20.0000000000,0
TYPE,1
MAT,1
SECNUM,1
E,1,2
E,2,3
E,3,4
E,4,5
E,5,6
E,6,7
E,7,8
E,8,9
E,9,10
E,10,11
E,11,12
E,12,13
E,13,14
E,14,15
E,15,16
E,16,17
E,17,18
E,18,19
E,19,20
E,20,21
E,21,22
E,22,23
E,23,24
E,24,25
E,25,26
E,26,27
E,27,28
E,28,29
E,29,30
E,30,31
E,31,32
E,32,33
E,33,34
E,34,35
E,35,36
E,36,37
E,37,38
E,38,39
E,39,40
E,40,41
SECNUM,2
E,41,42
E,42,43
E,43,44
E,44,45
E,45,46
E,46,47
E,47,48
E,48,49
E,49,50
E,50,51
E,51,52
E,52,53
E,53,54
E,54,55
E,55,56
E,56,57
E,57,58
E,58,59
E,59,60
E,60,61
E,61,62
E,62,63
E,63,64
E,64,65
E,65,66
E,66,67
E,67,68
E,68,69
E,69,70
E,70,71
E,71,72
E,72,73
E,73,74
E,74,75
E,75,76
E,76,77
E,77,78
E,78,79
E,79,80
E,80,81
NSEL,ALL
D,ALL,UZ,0
D,ALL,ROTX,0
D,ALL,ROTY,0
D,1,ALL,0
D,81,ALL,0
*DIM,qsec,ARRAY,2
qsec(1)=100
qsec(2)=10
FCUM,ADD
*GET,emx,ELEM,0,NUM,MAX
*DO,e,1,emx
  n1=NELEM(e,1)
  n2=NELEM(e,2)
  *GET,sc,ELEM,e,ATTR,SECN
  le=DISTND(n1,n2)
  F,n1,FY,-qsec(sc)*le/2
  F,n2,FY,-qsec(sc)*le/2
*ENDDO
FCUM,REPL
FINISH
/SOLU
ANTYPE,STATIC
NLGEOM,ON
AUTOTS,ON
NSUBST,200,20000,50
PIVCHECK,OFF
STABILIZE,REDUCE,ENERGY,1.0E-2
OUTRES,ALL,LAST
SOLVE
FINISH
/POST1
SET,LAST
ALLSEL,ALL
ETABLE,AXF,SMISC,1
*GET,nmx,NODE,0,NUM,MAX
*CFOPEN,caso,txt
*DO,i,1,nmx
  x0=NX(i)
  y0=NY(i)
  xf=x0+UX(i)
  yf=y0+UY(i)
  *VWRITE,i,x0,y0,xf,yf
('N',F8.0,4E20.10)
*ENDDO
*GET,emx,ELEM,0,NUM,MAX
*DO,k,1,emx
  *GET,sc,ELEM,k,ATTR,SECN
  *GET,ax,ELEM,k,ETAB,AXF
  n1=NELEM(k,1)
  n2=NELEM(k,2)
  *VWRITE,k,sc,n1,n2,ax
('E',4F8.0,E20.10)
*ENDDO
*CFCLOS
FINISH
