! Cabo hibrido #4 - diferenca no comprimento
! Gerado por casos_2d.py: A = (0, 10), B = (40, 20), trechos (L, q) = [(100, 10), (10, 5)], forcas (fracao do arco, P) = []
! Resultado final gravado em caso.txt (nos e forca axial dos elementos)
/CLEAR,NOSTART
/FILNAME,cabo2d,1
/TITLE,Cabo 2D - casos_2d.py
/PREP7
ET,1,BEAM188
MP,EX,1,2.0E11
MP,PRXY,1,0.3
rsec=0.01
fI=0.01
Asec=3.14159265359*rsec**2
Isec=fI*3.14159265359*rsec**4/4
SECTYPE,1,BEAM,ASEC
SECDATA,Asec,Isec,0,Isec,0,2*Isec
SECTYPE,2,BEAM,ASEC
SECDATA,Asec,Isec,0,Isec,0,2*Isec
N,1,0.0000000000,10.0000000000,0
N,2,0.5305320208,7.5569449905,0
N,3,1.0760265932,5.1171879518,0
N,4,1.6378016108,2.6811289495,0
N,5,2.2173778695,0.2492447478,0
N,6,2.8165253221,-2.1778903935,0
N,7,3.4373235912,-4.5995764403,0
N,8,4.0822424073,-7.0149483882,0
N,9,4.7542509823,-9.4229205925,0
N,10,5.4569693924,-11.8221057945,0
N,11,6.1948837009,-14.2106936909,0
N,12,6.9736603112,-16.5862624397,0
N,13,7.8006202866,-18.9454739515,0
N,14,8.6854830088,-21.2835565626,0
N,15,9.6415863151,-23.5933724358,0
N,16,10.6879960525,-25.8636071412,0
N,17,11.8533806245,-28.0749082540,0
N,18,13.1835646697,-30.1905932918,0
N,19,14.7564437552,-32.1306314013,0
N,20,16.7009597840,-33.6877538184,0
N,21,19.0860747531,-34.3274727499,0
N,22,21.4433301214,-33.5846564871,0
N,23,23.3517127728,-31.9819757204,0
N,24,24.9006321172,-30.0224778460,0
N,25,26.2149713921,-27.8968398183,0
N,26,27.3691995302,-25.6796693243,0
N,27,28.4073062580,-23.4056150282,0
N,28,29.3569586143,-21.0931341350,0
N,29,30.2366405157,-18.7530944958,0
N,30,31.0593303285,-16.3923888532,0
N,31,31.8345137069,-14.0156441153,0
N,32,32.5693529216,-11.6261077125,0
N,33,33.2694026638,-9.2261420149,0
N,34,33.9390679808,-6.8175167709,0
N,35,34.5819086670,-4.4015906767,0
N,36,35.2008479391,-1.9794286668,0
N,37,35.7983200583,0.4481195517,0
N,38,36.3763765247,2.8803655528,0
N,39,36.9367648809,5.3167439914,0
N,40,37.4809877717,7.7567850723,0
N,41,38.0103481179,10.2000942761,0
N,42,38.0625117968,10.4445916155,0
N,43,38.1145394062,10.6891179459,0
N,44,38.1664319889,10.9336729669,0
N,45,38.2181905773,11.1782563821,0
N,46,38.2698161754,11.4228679028,0
N,47,38.3213097816,11.6675072435,0
N,48,38.3726724169,11.9121741154,0
N,49,38.4239050641,12.1568682396,0
N,50,38.4750086363,12.4015893532,0
N,51,38.5259841713,12.6463371692,0
N,52,38.5768325227,12.8911114402,0
N,53,38.6275547003,13.1359118882,0
N,54,38.6781515992,13.3807382603,0
N,55,38.7286241028,13.6255903076,0
N,56,38.7789731456,13.8704677719,0
N,57,38.8291996106,14.1153704075,0
N,58,38.8793043722,14.3602979715,0
N,59,38.9292882969,14.6052502240,0
N,60,38.9791522430,14.8502269283,0
N,61,39.0288970609,15.0952278504,0
N,62,39.0785235932,15.3402527596,0
N,63,39.1280326744,15.5853014275,0
N,64,39.1774250771,15.8303736401,0
N,65,39.2267016613,16.0754691666,0
N,66,39.2758632294,16.3205877891,0
N,67,39.3249105218,16.5657293033,0
N,68,39.3738443878,16.8108934843,0
N,69,39.4226655361,17.0560801364,0
N,70,39.4713747769,17.3012890448,0
N,71,39.5199728699,17.5465200060,0
N,72,39.5684605105,17.7917728299,0
N,73,39.6168384815,18.0370473106,0
N,74,39.6651075112,18.2823432538,0
N,75,39.7132683186,18.5276604681,0
N,76,39.7613216169,18.7729987642,0
N,77,39.8092681128,19.0183579551,0
N,78,39.8571085073,19.2637378558,0
N,79,39.9048434951,19.5091382836,0
N,80,39.9524737650,19.7545590579,0
N,81,40.0000000000,20.0000000000,0
TYPE,1
MAT,1
SECNUM,1
E,1,2
E,2,3
E,3,4
E,4,5
E,5,6
E,6,7
E,7,8
E,8,9
E,9,10
E,10,11
E,11,12
E,12,13
E,13,14
E,14,15
E,15,16
E,16,17
E,17,18
E,18,19
E,19,20
E,20,21
E,21,22
E,22,23
E,23,24
E,24,25
E,25,26
E,26,27
E,27,28
E,28,29
E,29,30
E,30,31
E,31,32
E,32,33
E,33,34
E,34,35
E,35,36
E,36,37
E,37,38
E,38,39
E,39,40
E,40,41
SECNUM,2
E,41,42
E,42,43
E,43,44
E,44,45
E,45,46
E,46,47
E,47,48
E,48,49
E,49,50
E,50,51
E,51,52
E,52,53
E,53,54
E,54,55
E,55,56
E,56,57
E,57,58
E,58,59
E,59,60
E,60,61
E,61,62
E,62,63
E,63,64
E,64,65
E,65,66
E,66,67
E,67,68
E,68,69
E,69,70
E,70,71
E,71,72
E,72,73
E,73,74
E,74,75
E,75,76
E,76,77
E,77,78
E,78,79
E,79,80
E,80,81
NSEL,ALL
D,ALL,UZ,0
D,ALL,ROTX,0
D,ALL,ROTY,0
D,1,ALL,0
D,81,ALL,0
*DIM,qsec,ARRAY,2
qsec(1)=10
qsec(2)=5
FCUM,ADD
*GET,emx,ELEM,0,NUM,MAX
*DO,e,1,emx
  n1=NELEM(e,1)
  n2=NELEM(e,2)
  *GET,sc,ELEM,e,ATTR,SECN
  le=DISTND(n1,n2)
  F,n1,FY,-qsec(sc)*le/2
  F,n2,FY,-qsec(sc)*le/2
*ENDDO
FCUM,REPL
FINISH
/SOLU
ANTYPE,STATIC
NLGEOM,ON
AUTOTS,ON
NSUBST,200,20000,50
PIVCHECK,OFF
STABILIZE,REDUCE,ENERGY,1.0E-2
OUTRES,ALL,LAST
SOLVE
FINISH
/POST1
SET,LAST
ALLSEL,ALL
ETABLE,AXF,SMISC,1
*GET,nmx,NODE,0,NUM,MAX
*CFOPEN,caso,txt
*DO,i,1,nmx
  x0=NX(i)
  y0=NY(i)
  xf=x0+UX(i)
  yf=y0+UY(i)
  *VWRITE,i,x0,y0,xf,yf
('N',F8.0,4E20.10)
*ENDDO
*GET,emx,ELEM,0,NUM,MAX
*DO,k,1,emx
  *GET,sc,ELEM,k,ATTR,SECN
  *GET,ax,ELEM,k,ETAB,AXF
  n1=NELEM(k,1)
  n2=NELEM(k,2)
  *VWRITE,k,sc,n1,n2,ax
('E',4F8.0,E20.10)
*ENDDO
*CFCLOS
FINISH
